c NeuroCodeBench 2.0 CNF formula with verdict Unsat
p cnf 8 32
-1 2 8 5 6 -4 0
-1 -2 -8 -5 -7 0
-1 -2 8 0
-1 2 -8 5 3 7 0
-1 2 -8 5 -3 -6 0
1 -3 2 8 -7 -5 0
-1 2 -8 5 -3 6 0
1 3 7 -4 -8 0
-1 2 8 5 -6 -3 0
-1 2 8 5 -6 3 -7 0
1 -3 -2 -6 0
-1 2 -8 -5 -6 7 0
1 -3 -2 6 0
-1 2 8 5 -6 3 7 4 0
-1 2 8 5 6 4 -3 0
-1 2 8 5 6 4 3 0
-1 2 8 -5 0
-1 -2 -8 -5 7 0
1 -3 2 -8 -6 0
-1 2 -8 -5 6 -7 0
1 3 -7 8 0
1 -3 2 -8 6 0
1 3 7 4 0
-1 -2 -8 5 0
-1 2 -8 5 3 -7 0
1 -3 2 8 7 0
1 3 -7 -8 0
-1 2 -8 -5 -6 -7 0
1 -3 2 8 -7 5 0
-1 2 -8 -5 6 7 0
1 3 7 -4 8 0
-1 2 8 5 -6 3 7 -4 0
